(declare-const a Real)
(declare-const b Real)
(declare-const c Real)
(assert (<= (+ (pow a 2) (pow b 2) (pow c 2) (* a b) (* a c) (* b c)) 2))
(assert (> a 0))
(assert (> b 0))
(assert (> c 0))
(assert (not (<= (+ 6 (* -2 (pow (+ a c) -2)) (* -4 (pow (* (+ 1 (* a b)) (+ 1 (* b c))) (/ 1 2)) (pow (+ a b) -1) (pow (+ b c) -1)) (* -2 a c (pow (+ (/ 2 3) (* (/ 1 3) (pow (+ a c) 6))) -1))) 0)))
(check-sat)
(get-model)
(exit)